This is Ipopt version 3.10.0, running with linear solver ma27.

Number of nonzeros in equality constraint Jacobian...:        0
Number of nonzeros in inequality constraint Jacobian.:        6
Number of nonzeros in Lagrangian Hessian.............:        0

Total number of variables............................:        2
                     variables with only lower bounds:        0
                variables with lower and upper bounds:        2
                     variables with only upper bounds:        0
Total number of equality constraints.................:        0
Total number of inequality constraints...............:        3
        inequality constraints with only lower bounds:        0
   inequality constraints with lower and upper bounds:        0
        inequality constraints with only upper bounds:        3

iter    objective    inf_pr   inf_du lg(mu)  ||d||  lg(rg) alpha_du alpha_pr  ls
   0  9.0000000e+04 3.00e-01 3.00e+02   0.0 0.00e+00    -  0.00e+00 0.00e+00   0
   1  8.9367844e+04 3.09e-01 2.98e+02  -3.8 2.96e+02    -  4.98e-01 3.56e-03f  1
Warning: Cutting back alpha due to evaluation error
   2  8.9425406e+04 3.08e-01 6.79e+04   0.7 3.46e+01    -  8.59e-01 2.78e-03h  2
Warning: Cutting back alpha due to evaluation error
Warning: Cutting back alpha due to evaluation error
   3  9.4780456e+04 2.34e-01 6.05e+04  -0.3 3.67e+01    -  1.00e+00 2.41e-01h  3
Warning: Cutting back alpha due to evaluation error
   4  1.0412651e+05 1.24e-01 3.81e+04  -0.3 3.05e+01    -  1.00e+00 4.88e-01h  2
Warning: Cutting back alpha due to evaluation error
   5  1.0922442e+05 7.12e-02 3.27e+04  -1.3 1.85e+01    -  1.00e+00 4.23e-01h  2
   6  1.1651705e+05 4.14e-03 1.92e+03  -1.9 1.15e+01    -  1.00e+00 9.50e-01h  1
Warning: Cutting back alpha due to evaluation error
Warning: Cutting back alpha due to evaluation error
   7  1.1663986e+05 3.09e-03 3.99e+03  -3.6 7.34e-01    -  1.00e+00 2.46e-01h  3
   8  1.1701033e+05 0.00e+00 3.28e+01  -4.9 5.48e-01    -  1.00e+00 9.92e-01h  1
   9  1.1699905e+05 8.51e-06 8.64e-02  -6.3 1.66e-02    -  1.00e+00 9.95e-01f  1
iter    objective    inf_pr   inf_du lg(mu)  ||d||  lg(rg) alpha_du alpha_pr  ls
  10  1.1700008e+05 0.00e+00 4.88e-07  -8.4 1.52e-03    -  1.00e+00 1.00e+00h  1

Number of Iterations....: 10

                                   (scaled)                 (unscaled)
Objective...............:   1.1700008128909909e+05    1.1700008128909909e+05
Dual infeasibility......:   4.8785322217168146e-07    4.8785322217168146e-07
Constraint violation....:   0.0000000000000000e+00    0.0000000000000000e+00
Complementarity.........:   4.3465603957611986e-09    4.3465603957611986e-09
Overall NLP error.......:   2.0046537992987652e-09    4.8785322217168146e-07


Number of objective function evaluations             = 11
Number of objective gradient evaluations             = 11
Number of equality constraint evaluations            = 0
Number of inequality constraint evaluations          = 18
Number of equality constraint Jacobian evaluations   = 0
Number of inequality constraint Jacobian evaluations = 11
Number of Lagrangian Hessian evaluations             = 0
Total CPU secs in IPOPT (w/o function evaluations)   =      0.023
Total CPU secs in NLP function evaluations           =     32.681

EXIT: Optimal Solution Found.
